(benchmark gametime
:status unknown
:logic QF_AUFBV
:extrafuns ((gtINDEX104  BitVec[32]))
:extrafuns ((gtFIELD__bitsForTID0__gtAGG____anonstruct_D_Work_4  Array[32:32]))
:extrafuns ((gtINDEX105  BitVec[32]))
:extrafuns ((gtAGG__rtDWork  BitVec[32]))
:extrafuns ((gtINDEX102  BitVec[32]))
:extrafuns ((gtINDEX103  BitVec[32]))
:extrafuns ((gtINDEX100  BitVec[32]))
:extrafuns ((gtINDEX101  BitVec[32]))
:extrafuns ((gtINDEX98  BitVec[32]))
:extrafuns ((gtINDEX99  BitVec[32]))
:extrafuns ((gtINDEX97  BitVec[32]))
:extrafuns ((gtINDEX96  BitVec[32]))
:extrafuns ((gtINDEX95  BitVec[32]))
:extrafuns ((gtINDEX94  BitVec[32]))
:extrafuns ((gtINDEX92  BitVec[32]))
:extrafuns ((gtINDEX93  BitVec[32]))
:extrafuns ((gtINDEX90  BitVec[32]))
:extrafuns ((gtINDEX91  BitVec[32]))
:extrafuns ((gtINDEX89  BitVec[32]))
:extrafuns ((gtINDEX87  BitVec[32]))
:extrafuns ((gtINDEX88  BitVec[32]))
:extrafuns ((gtINDEX86  BitVec[32]))
:extrafuns ((gtINDEX84  BitVec[32]))
:extrafuns ((gtINDEX85  BitVec[32]))
:extrafuns ((gtINDEX82  BitVec[32]))
:extrafuns ((gtINDEX83  BitVec[32]))
:extrafuns ((gtINDEX80  BitVec[32]))
:extrafuns ((gtINDEX81  BitVec[32]))
:extrafuns ((gtINDEX78  BitVec[32]))
:extrafuns ((gtINDEX79  BitVec[32]))
:extrafuns ((gtINDEX77  BitVec[32]))
:extrafuns ((gtINDEX75  BitVec[32]))
:extrafuns ((gtINDEX76  BitVec[32]))
:extrafuns ((gtINDEX73  BitVec[32]))
:extrafuns ((gtINDEX74  BitVec[32]))
:extrafuns ((gtINDEX71  BitVec[32]))
:extrafuns ((gtINDEX72  BitVec[32]))
:extrafuns ((gtINDEX69  BitVec[32]))
:extrafuns ((gtINDEX70  BitVec[32]))
:extrafuns ((gtINDEX68  BitVec[32]))
:extrafuns ((gtINDEX66  BitVec[32]))
:extrafuns ((gtINDEX67  BitVec[32]))
:extrafuns ((gtINDEX65  BitVec[32]))
:extrafuns ((gtINDEX64  BitVec[32]))
:extrafuns ((gtINDEX62  BitVec[32]))
:extrafuns ((gtINDEX63  BitVec[32]))
:extrafuns ((gtINDEX60  BitVec[32]))
:extrafuns ((gtINDEX61  BitVec[32]))
:extrafuns ((gtINDEX59  BitVec[32]))
:extrafuns ((gtINDEX57  BitVec[32]))
:extrafuns ((gtINDEX58  BitVec[32]))
:extrafuns ((gtINDEX55  BitVec[32]))
:extrafuns ((gtINDEX56  BitVec[32]))
:extrafuns ((gtINDEX53  BitVec[32]))
:extrafuns ((gtINDEX54  BitVec[32]))
:extrafuns ((gtINDEX51  BitVec[32]))
:extrafuns ((gtINDEX52  BitVec[32]))
:extrafuns ((gtINDEX49  BitVec[32]))
:extrafuns ((gtINDEX50  BitVec[32]))
:extrafuns ((gtINDEX48  BitVec[32]))
:extrafuns ((gtINDEX47  BitVec[32]))
:extrafuns ((gtINDEX45  BitVec[32]))
:extrafuns ((gtINDEX46  BitVec[32]))
:extrafuns ((gtINDEX43  BitVec[32]))
:extrafuns ((gtINDEX44  BitVec[32]))
:extrafuns ((gtINDEX42  BitVec[32]))
:extrafuns ((gtINDEX40  BitVec[32]))
:extrafuns ((gtINDEX41  BitVec[32]))
:extrafuns ((gtINDEX38  BitVec[32]))
:extrafuns ((gtINDEX39  BitVec[32]))
:extrafuns ((gtINDEX36  BitVec[32]))
:extrafuns ((gtINDEX37  BitVec[32]))
:extrafuns ((gtINDEX34  BitVec[32]))
:extrafuns ((gtINDEX35  BitVec[32]))
:extrafuns ((gtINDEX33  BitVec[32]))
:extrafuns ((gtINDEX31  BitVec[32]))
:extrafuns ((gtINDEX32  BitVec[32]))
:extrafuns ((gtINDEX29  BitVec[32]))
:extrafuns ((gtINDEX30  BitVec[32]))
:extrafuns ((gtINDEX27  BitVec[32]))
:extrafuns ((gtINDEX28  BitVec[32]))
:extrafuns ((gtINDEX25  BitVec[32]))
:extrafuns ((gtINDEX26  BitVec[32]))
:extrafuns ((gtINDEX24  BitVec[32]))
:extrafuns ((gtINDEX22  BitVec[32]))
:extrafuns ((gtINDEX23  BitVec[32]))
:extrafuns ((gtINDEX20  BitVec[32]))
:extrafuns ((gtINDEX21  BitVec[32]))
:extrafuns ((gtINDEX19  BitVec[32]))
:extrafuns ((gtINDEX17  BitVec[32]))
:extrafuns ((gtINDEX18  BitVec[32]))
:extrafuns ((gtINDEX15  BitVec[32]))
:extrafuns ((gtINDEX16  BitVec[32]))
:extrafuns ((gtINDEX13  BitVec[32]))
:extrafuns ((gtINDEX14  BitVec[32]))
:extrafuns ((gtINDEX11  BitVec[32]))
:extrafuns ((gtINDEX12  BitVec[32]))
:extrafuns ((gtINDEX9  BitVec[32]))
:extrafuns ((gtINDEX10  BitVec[32]))
:extrafuns ((gtINDEX8  BitVec[32]))
:extrafuns ((gtINDEX7  BitVec[32]))
:extrafuns ((gtINDEX6  BitVec[32]))
:extrafuns ((gtINDEX5  BitVec[32]))
:extrafuns ((gtINDEX4  BitVec[32]))
:extrafuns ((gtINDEX3  BitVec[32]))
:extrafuns ((gtINDEX2  BitVec[32]))
:extrafuns ((gtINDEX1  BitVec[32]))
:extrafuns ((gtINDEX0  BitVec[32]))
:extrafuns ((gtFIELD__is_Eng__gtAGG____anonstruct_bitsForTID0_5_1_  Array[32:1]))
:extrafuns ((gtFIELD__is_Eng__gtAGG____anonstruct_bitsForTID0_5_2_  Array[32:1]))
:extrafuns ((sf_previousEvent_1_  BitVec[32]))
:extrafuns ((sfEvent__2_  BitVec[32]))
:extrafuns ((gtFIELD__is_Eng__gtAGG____anonstruct_bitsForTID0_5  Array[32:1]))
:extrafuns ((gtFIELD__sent__gtAGG____anonstruct_D_Work_4_1_  Array[32:32]))
:extrafuns ((gtFIELD__sent__gtAGG____anonstruct_D_Work_4_2_  Array[32:32]))
:extrafuns ((gtFIELD__is_active_Eng__gtAGG____anonstruct_bitsForTID0_5  Array[32:1]))
:extrafuns ((gtFIELD__temporalCounter_i5__gtAGG____anonstruct_D_Work_4  Array[32:32]))
:extrafuns ((gtFIELD__temporalCounter_i5__gtAGG____anonstruct_D_Work_4_1_  Array[32:32]))
:extrafuns ((gtFIELD__is_PURI__gtAGG____anonstruct_bitsForTID0_5  Array[32:2]))
:extrafuns ((gtFIELD__is_PURI__gtAGG____anonstruct_bitsForTID0_5_1_  Array[32:2]))
:extrafuns ((gtFIELD__n_t_a__gtAGG____anonstruct_D_Work_4  Array[32:32]))
:extrafuns ((gtFIELD__n_t_a__gtAGG____anonstruct_D_Work_4_1_  Array[32:32]))
:extrafuns ((sfEvent__1_  BitVec[32]))
:extrafuns ((gtFIELD__is_active_PURI__gtAGG____anonstruct_bitsForTID0_5  Array[32:1]))
:extrafuns ((gtFIELD__is_PVRP__gtAGG____anonstruct_bitsForTID0_5  Array[32:2]))
:extrafuns ((gtFIELD__is_active_PVRP__gtAGG____anonstruct_bitsForTID0_5  Array[32:1]))
:extrafuns ((gtFIELD__is_PPVARP__gtAGG____anonstruct_bitsForTID0_5  Array[32:2]))
:extrafuns ((gtFIELD__is_active_PPVARP__gtAGG____anonstruct_bitsForTID0_5  Array[32:1]))
:extrafuns ((gtFIELD__temporalCounter_i2__gtAGG____anonstruct_D_Work_4  Array[32:32]))
:extrafuns ((gtFIELD__temporalCounter_i2__gtAGG____anonstruct_D_Work_4_1_  Array[32:32]))
:extrafuns ((gtFIELD__is_PLRI__gtAGG____anonstruct_bitsForTID0_5  Array[32:2]))
:extrafuns ((gtFIELD__is_PLRI__gtAGG____anonstruct_bitsForTID0_5_1_  Array[32:2]))
:extrafuns ((gtFIELD__n_t_n__gtAGG____anonstruct_D_Work_4  Array[32:32]))
:extrafuns ((gtFIELD__n_t_n__gtAGG____anonstruct_D_Work_4_1_  Array[32:32]))
:extrafuns ((gtFIELD__is_active_PLRI__gtAGG____anonstruct_bitsForTID0_5  Array[32:1]))
:extrafuns ((gtFIELD__is_PAVI__gtAGG____anonstruct_bitsForTID0_5  Array[32:3]))
:extrafuns ((gtFIELD__is_active_PAVI__gtAGG____anonstruct_bitsForTID0_5  Array[32:1]))
:extrafuns ((sfEvent_  BitVec[32]))
:extrafuns ((gtFIELD__sent__gtAGG____anonstruct_D_Work_4  Array[32:32]))
:extrafuns ((gtFIELD__temporalCounter_i4__gtAGG____anonstruct_D_Work_4  Array[32:32]))
:extrafuns ((gtFIELD__temporalCounter_i4__gtAGG____anonstruct_D_Work_4_1_  Array[32:32]))
:extrafuns ((gtFIELD__temporalCounter_i3__gtAGG____anonstruct_D_Work_4  Array[32:32]))
:extrafuns ((gtFIELD__temporalCounter_i3__gtAGG____anonstruct_D_Work_4_1_  Array[32:32]))
:extrafuns ((gtFIELD__temporalCounter_i1__gtAGG____anonstruct_D_Work_4  Array[32:32]))
:extrapreds ((constraint187 ))
:extrapreds ((constraint186 ))
:extrapreds ((constraint185 ))
:extrapreds ((constraint184 ))
:extrapreds ((constraint183 ))
:extrapreds ((constraint182 ))
:extrapreds ((constraint181 ))
:extrapreds ((constraint180 ))
:extrapreds ((constraint179 ))
:extrapreds ((constraint178 ))
:extrapreds ((constraint177 ))
:extrapreds ((constraint176 ))
:extrapreds ((constraint175 ))
:extrapreds ((constraint174 ))
:extrapreds ((constraint173 ))
:extrapreds ((constraint172 ))
:extrapreds ((constraint171 ))
:extrapreds ((constraint170 ))
:extrapreds ((constraint169 ))
:extrapreds ((constraint168 ))
:extrapreds ((constraint167 ))
:extrapreds ((constraint166 ))
:extrapreds ((constraint165 ))
:extrapreds ((constraint164 ))
:extrapreds ((constraint163 ))
:extrapreds ((constraint162 ))
:extrapreds ((constraint161 ))
:extrapreds ((constraint160 ))
:extrapreds ((constraint159 ))
:extrapreds ((constraint158 ))
:extrapreds ((constraint157 ))
:extrapreds ((constraint156 ))
:extrapreds ((constraint155 ))
:extrapreds ((constraint154 ))
:extrapreds ((constraint153 ))
:extrapreds ((constraint152 ))
:extrapreds ((constraint151 ))
:extrapreds ((constraint150 ))
:extrapreds ((constraint149 ))
:extrapreds ((constraint148 ))
:extrapreds ((constraint147 ))
:extrapreds ((constraint146 ))
:extrapreds ((constraint145 ))
:extrapreds ((constraint144 ))
:extrapreds ((constraint143 ))
:extrapreds ((constraint142 ))
:extrapreds ((constraint141 ))
:extrapreds ((constraint140 ))
:extrapreds ((constraint139 ))
:extrapreds ((constraint138 ))
:extrapreds ((constraint137 ))
:extrapreds ((constraint136 ))
:extrapreds ((constraint135 ))
:extrapreds ((constraint134 ))
:extrapreds ((constraint133 ))
:extrapreds ((constraint132 ))
:extrapreds ((constraint131 ))
:extrapreds ((constraint130 ))
:extrapreds ((constraint129 ))
:extrapreds ((constraint128 ))
:extrapreds ((constraint127 ))
:extrapreds ((constraint126 ))
:extrapreds ((constraint125 ))
:extrapreds ((constraint124 ))
:extrapreds ((constraint123 ))
:extrapreds ((constraint122 ))
:extrapreds ((constraint121 ))
:extrapreds ((constraint120 ))
:extrapreds ((constraint119 ))
:extrapreds ((constraint118 ))
:extrapreds ((constraint117 ))
:extrapreds ((constraint116 ))
:extrapreds ((constraint115 ))
:extrapreds ((constraint114 ))
:extrapreds ((constraint113 ))
:extrapreds ((constraint112 ))
:extrapreds ((constraint111 ))
:extrapreds ((constraint110 ))
:extrapreds ((constraint109 ))
:extrapreds ((constraint108 ))
:extrapreds ((constraint107 ))
:extrapreds ((constraint106 ))
:extrapreds ((constraint105 ))
:extrapreds ((constraint104 ))
:extrapreds ((constraint103 ))
:extrapreds ((constraint102 ))
:extrapreds ((constraint101 ))
:extrapreds ((constraint100 ))
:extrapreds ((constraint99 ))
:extrapreds ((constraint98 ))
:extrapreds ((constraint97 ))
:extrapreds ((constraint96 ))
:extrapreds ((constraint95 ))
:extrapreds ((constraint94 ))
:extrapreds ((constraint93 ))
:extrapreds ((constraint92 ))
:extrapreds ((constraint91 ))
:extrapreds ((constraint90 ))
:extrapreds ((constraint89 ))
:extrapreds ((constraint88 ))
:extrapreds ((constraint87 ))
:extrapreds ((constraint86 ))
:extrapreds ((constraint85 ))
:extrapreds ((constraint84 ))
:extrapreds ((constraint83 ))
:extrapreds ((constraint82 ))
:extrapreds ((constraint81 ))
:extrapreds ((constraint80 ))
:extrapreds ((constraint79 ))
:extrapreds ((constraint78 ))
:extrapreds ((constraint77 ))
:extrapreds ((constraint76 ))
:extrapreds ((constraint75 ))
:extrapreds ((constraint74 ))
:extrapreds ((constraint73 ))
:extrapreds ((constraint72 ))
:extrapreds ((constraint71 ))
:extrapreds ((constraint70 ))
:extrapreds ((constraint69 ))
:extrapreds ((constraint68 ))
:extrapreds ((constraint67 ))
:extrapreds ((constraint66 ))
:extrapreds ((constraint65 ))
:extrapreds ((constraint64 ))
:extrapreds ((constraint63 ))
:extrapreds ((constraint62 ))
:extrapreds ((constraint61 ))
:extrapreds ((constraint60 ))
:extrapreds ((constraint59 ))
:extrapreds ((constraint58 ))
:extrapreds ((constraint57 ))
:extrapreds ((constraint56 ))
:extrapreds ((constraint55 ))
:extrapreds ((constraint54 ))
:extrapreds ((constraint53 ))
:extrapreds ((constraint52 ))
:extrapreds ((constraint51 ))
:extrapreds ((constraint50 ))
:extrapreds ((constraint49 ))
:extrapreds ((constraint48 ))
:extrapreds ((constraint47 ))
:extrapreds ((constraint46 ))
:extrapreds ((constraint45 ))
:extrapreds ((constraint44 ))
:extrapreds ((constraint43 ))
:extrapreds ((constraint42 ))
:extrapreds ((constraint41 ))
:extrapreds ((constraint40 ))
:extrapreds ((constraint39 ))
:extrapreds ((constraint38 ))
:extrapreds ((constraint37 ))
:extrapreds ((constraint36 ))
:extrapreds ((constraint35 ))
:extrapreds ((constraint34 ))
:extrapreds ((constraint33 ))
:extrapreds ((constraint32 ))
:extrapreds ((constraint31 ))
:extrapreds ((constraint30 ))
:extrapreds ((constraint29 ))
:extrapreds ((constraint28 ))
:extrapreds ((constraint27 ))
:extrapreds ((constraint26 ))
:extrapreds ((constraint25 ))
:extrapreds ((constraint24 ))
:extrapreds ((constraint23 ))
:extrapreds ((constraint22 ))
:extrapreds ((constraint21 ))
:extrapreds ((constraint20 ))
:extrapreds ((constraint19 ))
:extrapreds ((constraint18 ))
:extrapreds ((constraint17 ))
:extrapreds ((constraint16 ))
:extrapreds ((constraint15 ))
:extrapreds ((constraint14 ))
:extrapreds ((constraint13 ))
:extrapreds ((constraint12 ))
:extrapreds ((constraint11 ))
:extrapreds ((constraint10 ))
:extrapreds ((constraint9 ))
:extrapreds ((constraint8 ))
:extrapreds ((constraint7 ))
:extrapreds ((constraint6 ))
:extrapreds ((constraint5 ))
:extrapreds ((constraint4 ))
:extrapreds ((constraint3 ))
:extrapreds ((constraint2 ))
:extrapreds ((constraint1 ))
:extrapreds ((constraint0 ))
:formula
(flet ($x921 (and constraint0 constraint1 constraint2 constraint3 constraint4 constraint5 constraint6 constraint7 constraint8 constraint9 constraint10 constraint11 constraint12 constraint13 constraint14 constraint15 constraint16 constraint17 constraint18 constraint19 constraint20 constraint21 constraint22 constraint23 constraint24 constraint25 constraint26 constraint27 constraint28 constraint29 constraint30 constraint31 constraint32 constraint33 constraint34 constraint35 constraint36 constraint37 constraint38 constraint39 constraint40 constraint41 constraint42 constraint43 constraint44 constraint45 constraint46 constraint47 constraint48 constraint49 constraint50 constraint51 constraint52 constraint53 constraint54 constraint55 constraint56 constraint57 constraint58 constraint59 constraint60 constraint61 constraint62 constraint63 constraint64 constraint65 constraint66 constraint67 constraint68 constraint69 constraint70 constraint71 constraint72 constraint73 constraint74 constraint75 constraint76 constraint77 constraint78 constraint79 constraint80 constraint81 constraint82 constraint83 constraint84 constraint85 constraint86 constraint87 constraint88 constraint89 constraint90 constraint91 constraint92 constraint93 constraint94 constraint95 constraint96 constraint97 constraint98 constraint99 constraint100 constraint101 constraint102 constraint103 constraint104 constraint105 constraint106 constraint107 constraint108 constraint109 constraint110 constraint111 constraint112 constraint113 constraint114 constraint115 constraint116 constraint117 constraint118 constraint119 constraint120 constraint121 constraint122 constraint123 constraint124 constraint125 constraint126 constraint127 constraint128 constraint129 constraint130 constraint131 constraint132 constraint133 constraint134 constraint135 constraint136 constraint137 constraint138 constraint139 constraint140 constraint141 constraint142 constraint143 constraint144 constraint145 constraint146 constraint147 constraint148 constraint149 constraint150 constraint151 constraint152 constraint153 constraint154 constraint155 constraint156 constraint157 constraint158 constraint159 constraint160 constraint161 constraint162 constraint163 constraint164 constraint165 constraint166 constraint167 constraint168 constraint169 constraint170 constraint171 constraint172 constraint173 constraint174 constraint175 constraint176 constraint177 constraint178 constraint179 constraint180 constraint181 constraint182 constraint183 constraint184 constraint185 constraint186 constraint187))
(let (?x542 (select gtFIELD__bitsForTID0__gtAGG____anonstruct_D_Work_4 gtINDEX104))
(let (?x538 (select gtFIELD__bitsForTID0__gtAGG____anonstruct_D_Work_4 gtINDEX102))
(let (?x534 (select gtFIELD__bitsForTID0__gtAGG____anonstruct_D_Work_4 gtINDEX100))
(flet ($x531 (= gtINDEX99 (select gtFIELD__bitsForTID0__gtAGG____anonstruct_D_Work_4 gtINDEX98)))
(flet ($x523 (= gtINDEX93 (select gtFIELD__bitsForTID0__gtAGG____anonstruct_D_Work_4 gtINDEX92)))
(flet ($x519 (= gtINDEX91 (select gtFIELD__bitsForTID0__gtAGG____anonstruct_D_Work_4 gtINDEX90)))
(flet ($x514 (= gtINDEX88 (select gtFIELD__bitsForTID0__gtAGG____anonstruct_D_Work_4 gtINDEX87)))
(flet ($x509 (= gtINDEX85 (select gtFIELD__bitsForTID0__gtAGG____anonstruct_D_Work_4 gtINDEX84)))
(flet ($x505 (= gtINDEX83 (select gtFIELD__bitsForTID0__gtAGG____anonstruct_D_Work_4 gtINDEX82)))
(flet ($x501 (= gtINDEX81 (select gtFIELD__bitsForTID0__gtAGG____anonstruct_D_Work_4 gtINDEX80)))
(flet ($x497 (= gtINDEX79 (select gtFIELD__bitsForTID0__gtAGG____anonstruct_D_Work_4 gtINDEX78)))
(flet ($x492 (= gtINDEX76 (select gtFIELD__bitsForTID0__gtAGG____anonstruct_D_Work_4 gtINDEX75)))
(flet ($x488 (= gtINDEX74 (select gtFIELD__bitsForTID0__gtAGG____anonstruct_D_Work_4 gtINDEX73)))
(flet ($x484 (= gtINDEX72 (select gtFIELD__bitsForTID0__gtAGG____anonstruct_D_Work_4 gtINDEX71)))
(flet ($x480 (= gtINDEX70 (select gtFIELD__bitsForTID0__gtAGG____anonstruct_D_Work_4 gtINDEX69)))
(flet ($x475 (= gtINDEX67 (select gtFIELD__bitsForTID0__gtAGG____anonstruct_D_Work_4 gtINDEX66)))
(flet ($x469 (= gtINDEX63 (select gtFIELD__bitsForTID0__gtAGG____anonstruct_D_Work_4 gtINDEX62)))
(flet ($x465 (= gtINDEX61 (select gtFIELD__bitsForTID0__gtAGG____anonstruct_D_Work_4 gtINDEX60)))
(flet ($x460 (= gtINDEX58 (select gtFIELD__bitsForTID0__gtAGG____anonstruct_D_Work_4 gtINDEX57)))
(flet ($x456 (= gtINDEX56 (select gtFIELD__bitsForTID0__gtAGG____anonstruct_D_Work_4 gtINDEX55)))
(flet ($x452 (= gtINDEX54 (select gtFIELD__bitsForTID0__gtAGG____anonstruct_D_Work_4 gtINDEX53)))
(flet ($x448 (= gtINDEX52 (select gtFIELD__bitsForTID0__gtAGG____anonstruct_D_Work_4 gtINDEX51)))
(flet ($x444 (= gtINDEX50 (select gtFIELD__bitsForTID0__gtAGG____anonstruct_D_Work_4 gtINDEX49)))
(flet ($x438 (= gtINDEX46 (select gtFIELD__bitsForTID0__gtAGG____anonstruct_D_Work_4 gtINDEX45)))
(flet ($x434 (= gtINDEX44 (select gtFIELD__bitsForTID0__gtAGG____anonstruct_D_Work_4 gtINDEX43)))
(flet ($x429 (= gtINDEX41 (select gtFIELD__bitsForTID0__gtAGG____anonstruct_D_Work_4 gtINDEX40)))
(flet ($x425 (= gtINDEX39 (select gtFIELD__bitsForTID0__gtAGG____anonstruct_D_Work_4 gtINDEX38)))
(flet ($x421 (= gtINDEX37 (select gtFIELD__bitsForTID0__gtAGG____anonstruct_D_Work_4 gtINDEX36)))
(flet ($x417 (= gtINDEX35 (select gtFIELD__bitsForTID0__gtAGG____anonstruct_D_Work_4 gtINDEX34)))
(flet ($x412 (= gtINDEX32 (select gtFIELD__bitsForTID0__gtAGG____anonstruct_D_Work_4 gtINDEX31)))
(flet ($x408 (= gtINDEX30 (select gtFIELD__bitsForTID0__gtAGG____anonstruct_D_Work_4 gtINDEX29)))
(flet ($x404 (= gtINDEX28 (select gtFIELD__bitsForTID0__gtAGG____anonstruct_D_Work_4 gtINDEX27)))
(flet ($x400 (= gtINDEX26 (select gtFIELD__bitsForTID0__gtAGG____anonstruct_D_Work_4 gtINDEX25)))
(flet ($x395 (= gtINDEX23 (select gtFIELD__bitsForTID0__gtAGG____anonstruct_D_Work_4 gtINDEX22)))
(flet ($x391 (= gtINDEX21 (select gtFIELD__bitsForTID0__gtAGG____anonstruct_D_Work_4 gtINDEX20)))
(flet ($x386 (= gtINDEX18 (select gtFIELD__bitsForTID0__gtAGG____anonstruct_D_Work_4 gtINDEX17)))
(flet ($x382 (= gtINDEX16 (select gtFIELD__bitsForTID0__gtAGG____anonstruct_D_Work_4 gtINDEX15)))
(flet ($x378 (= gtINDEX14 (select gtFIELD__bitsForTID0__gtAGG____anonstruct_D_Work_4 gtINDEX13)))
(flet ($x374 (= gtINDEX12 (select gtFIELD__bitsForTID0__gtAGG____anonstruct_D_Work_4 gtINDEX11)))
(flet ($x370 (= gtINDEX10 (select gtFIELD__bitsForTID0__gtAGG____anonstruct_D_Work_4 gtINDEX9)))
(let (?x345 (extract[0:0] bv1[32]))
(let (?x355 (store gtFIELD__is_Eng__gtAGG____anonstruct_bitsForTID0_5_1_ gtINDEX105 ?x345))
(flet ($x707 (iff constraint81 (= gtFIELD__is_Eng__gtAGG____anonstruct_bitsForTID0_5_2_ ?x355)))
(let (?x351 (select gtFIELD__is_Eng__gtAGG____anonstruct_bitsForTID0_5_1_ gtINDEX103))
(let (?x346 (store gtFIELD__is_Eng__gtAGG____anonstruct_bitsForTID0_5 gtINDEX101 ?x345))
(flet ($x701 (iff constraint78 (= gtFIELD__is_Eng__gtAGG____anonstruct_bitsForTID0_5_1_ ?x346)))
(let (?x342 (zero_extend[31] (select gtFIELD__is_Eng__gtAGG____anonstruct_bitsForTID0_5 gtINDEX99)))
(let (?x338 (store gtFIELD__sent__gtAGG____anonstruct_D_Work_4_1_ gtINDEX97 bv0[32]))
(flet ($x697 (iff constraint76 (= gtFIELD__sent__gtAGG____anonstruct_D_Work_4_2_ ?x338)))
(let (?x202 (bvmul bv4294967295[32] bv1[32]))
(flet ($x336 (= (select gtFIELD__sent__gtAGG____anonstruct_D_Work_4_1_ gtINDEX96) ?x202))
(flet ($x332 (= (select gtFIELD__sent__gtAGG____anonstruct_D_Work_4_1_ gtINDEX95) bv9[32]))
(flet ($x327 (= (select gtFIELD__sent__gtAGG____anonstruct_D_Work_4_1_ gtINDEX94) bv4[32]))
(let (?x323 (zero_extend[31] (select gtFIELD__is_Eng__gtAGG____anonstruct_bitsForTID0_5 gtINDEX93)))
(let (?x317 (select gtFIELD__is_active_Eng__gtAGG____anonstruct_bitsForTID0_5 gtINDEX91))
(let (?x314 (store gtFIELD__temporalCounter_i5__gtAGG____anonstruct_D_Work_4 gtINDEX89 bv0[32]))
(flet ($x685 (iff constraint70 (= gtFIELD__temporalCounter_i5__gtAGG____anonstruct_D_Work_4_1_ ?x314)))
(let (?x258 (extract[1:0] bv1[32]))
(let (?x311 (store gtFIELD__is_PURI__gtAGG____anonstruct_bitsForTID0_5 gtINDEX88 ?x258))
(flet ($x683 (iff constraint69 (= gtFIELD__is_PURI__gtAGG____anonstruct_bitsForTID0_5_1_ ?x311)))
(flet ($x309 (= gtFIELD__n_t_a__gtAGG____anonstruct_D_Work_4_1_ (store gtFIELD__n_t_a__gtAGG____anonstruct_D_Work_4 gtINDEX86 bv0[32])))
(let (?x304 (select gtFIELD__is_PURI__gtAGG____anonstruct_bitsForTID0_5 gtINDEX85))
(let (?x299 (select gtFIELD__is_active_PURI__gtAGG____anonstruct_bitsForTID0_5 gtINDEX83))
(let (?x293 (select gtFIELD__is_PVRP__gtAGG____anonstruct_bitsForTID0_5 gtINDEX81))
(let (?x288 (select gtFIELD__is_active_PVRP__gtAGG____anonstruct_bitsForTID0_5 gtINDEX79))
(flet ($x285 (= (select gtFIELD__sent__gtAGG____anonstruct_D_Work_4_1_ gtINDEX77) bv0[32]))
(let (?x280 (select gtFIELD__is_PPVARP__gtAGG____anonstruct_bitsForTID0_5 gtINDEX76))
(let (?x275 (select gtFIELD__is_PPVARP__gtAGG____anonstruct_bitsForTID0_5 gtINDEX74))
(let (?x270 (select gtFIELD__is_PPVARP__gtAGG____anonstruct_bitsForTID0_5 gtINDEX72))
(let (?x265 (select gtFIELD__is_active_PPVARP__gtAGG____anonstruct_bitsForTID0_5 gtINDEX70))
(let (?x262 (store gtFIELD__temporalCounter_i2__gtAGG____anonstruct_D_Work_4 gtINDEX68 bv0[32]))
(flet ($x653 (iff constraint54 (= gtFIELD__temporalCounter_i2__gtAGG____anonstruct_D_Work_4_1_ ?x262)))
(let (?x259 (store gtFIELD__is_PLRI__gtAGG____anonstruct_bitsForTID0_5 gtINDEX67 ?x258))
(flet ($x651 (iff constraint53 (= gtFIELD__is_PLRI__gtAGG____anonstruct_bitsForTID0_5_1_ ?x259)))
(flet ($x256 (= gtFIELD__n_t_n__gtAGG____anonstruct_D_Work_4_1_ (store gtFIELD__n_t_n__gtAGG____anonstruct_D_Work_4 gtINDEX65 bv0[32])))
(flet ($x250 (= (select gtFIELD__sent__gtAGG____anonstruct_D_Work_4_1_ gtINDEX64) bv0[32]))
(let (?x245 (select gtFIELD__is_PLRI__gtAGG____anonstruct_bitsForTID0_5 gtINDEX63))
(let (?x240 (select gtFIELD__is_active_PLRI__gtAGG____anonstruct_bitsForTID0_5 gtINDEX61))
(flet ($x237 (= (select gtFIELD__sent__gtAGG____anonstruct_D_Work_4_1_ gtINDEX59) bv0[32]))
(let (?x232 (select gtFIELD__is_PAVI__gtAGG____anonstruct_bitsForTID0_5 gtINDEX58))
(let (?x227 (select gtFIELD__is_PAVI__gtAGG____anonstruct_bitsForTID0_5 gtINDEX56))
(let (?x222 (select gtFIELD__is_PAVI__gtAGG____anonstruct_bitsForTID0_5 gtINDEX54))
(let (?x217 (select gtFIELD__is_PAVI__gtAGG____anonstruct_bitsForTID0_5 gtINDEX52))
(let (?x212 (select gtFIELD__is_active_PAVI__gtAGG____anonstruct_bitsForTID0_5 gtINDEX50))
(flet ($x204 (= gtFIELD__sent__gtAGG____anonstruct_D_Work_4_1_ (store gtFIELD__sent__gtAGG____anonstruct_D_Work_4 gtINDEX48 ?x202)))
(flet ($x200 (= (select gtFIELD__sent__gtAGG____anonstruct_D_Work_4 gtINDEX47) bv4[32]))
(let (?x196 (zero_extend[31] (select gtFIELD__is_Eng__gtAGG____anonstruct_bitsForTID0_5 gtINDEX46)))
(let (?x190 (select gtFIELD__is_active_Eng__gtAGG____anonstruct_bitsForTID0_5 gtINDEX44))
(flet ($x187 (= (select gtFIELD__sent__gtAGG____anonstruct_D_Work_4 gtINDEX42) bv0[32]))
(let (?x182 (select gtFIELD__is_PURI__gtAGG____anonstruct_bitsForTID0_5 gtINDEX41))
(let (?x177 (select gtFIELD__is_active_PURI__gtAGG____anonstruct_bitsForTID0_5 gtINDEX39))
(let (?x171 (select gtFIELD__is_PVRP__gtAGG____anonstruct_bitsForTID0_5 gtINDEX37))
(let (?x166 (select gtFIELD__is_active_PVRP__gtAGG____anonstruct_bitsForTID0_5 gtINDEX35))
(flet ($x163 (= (select gtFIELD__sent__gtAGG____anonstruct_D_Work_4 gtINDEX33) bv0[32]))
(let (?x158 (select gtFIELD__is_PPVARP__gtAGG____anonstruct_bitsForTID0_5 gtINDEX32))
(let (?x153 (select gtFIELD__is_PPVARP__gtAGG____anonstruct_bitsForTID0_5 gtINDEX30))
(let (?x148 (select gtFIELD__is_PPVARP__gtAGG____anonstruct_bitsForTID0_5 gtINDEX28))
(let (?x143 (select gtFIELD__is_active_PPVARP__gtAGG____anonstruct_bitsForTID0_5 gtINDEX26))
(flet ($x133 (= (select gtFIELD__sent__gtAGG____anonstruct_D_Work_4 gtINDEX24) bv0[32]))
(let (?x128 (select gtFIELD__is_PLRI__gtAGG____anonstruct_bitsForTID0_5 gtINDEX23))
(let (?x123 (select gtFIELD__is_active_PLRI__gtAGG____anonstruct_bitsForTID0_5 gtINDEX21))
(flet ($x120 (= (select gtFIELD__sent__gtAGG____anonstruct_D_Work_4 gtINDEX19) bv0[32]))
(let (?x114 (select gtFIELD__is_PAVI__gtAGG____anonstruct_bitsForTID0_5 gtINDEX18))
(let (?x108 (select gtFIELD__is_PAVI__gtAGG____anonstruct_bitsForTID0_5 gtINDEX16))
(let (?x102 (select gtFIELD__is_PAVI__gtAGG____anonstruct_bitsForTID0_5 gtINDEX14))
(let (?x97 (select gtFIELD__is_PAVI__gtAGG____anonstruct_bitsForTID0_5 gtINDEX12))
(let (?x91 (select gtFIELD__is_active_PAVI__gtAGG____anonstruct_bitsForTID0_5 gtINDEX10))
(let (?x87 (select gtFIELD__temporalCounter_i5__gtAGG____anonstruct_D_Work_4 gtINDEX8))
(let (?x82 (select gtFIELD__temporalCounter_i4__gtAGG____anonstruct_D_Work_4 gtINDEX6))
(let (?x84 (store gtFIELD__temporalCounter_i4__gtAGG____anonstruct_D_Work_4 gtINDEX7 (bvadd ?x82 bv1[32])))
(flet ($x557 (iff constraint6 (= gtFIELD__temporalCounter_i4__gtAGG____anonstruct_D_Work_4_1_ ?x84)))
(let (?x78 (select gtFIELD__temporalCounter_i4__gtAGG____anonstruct_D_Work_4 gtINDEX5))
(let (?x72 (select gtFIELD__temporalCounter_i3__gtAGG____anonstruct_D_Work_4 gtINDEX3))
(let (?x75 (store gtFIELD__temporalCounter_i3__gtAGG____anonstruct_D_Work_4 gtINDEX4 (bvadd ?x72 bv1[32])))
(flet ($x553 (iff constraint4 (= gtFIELD__temporalCounter_i3__gtAGG____anonstruct_D_Work_4_1_ ?x75)))
(let (?x68 (select gtFIELD__temporalCounter_i3__gtAGG____anonstruct_D_Work_4 gtINDEX2))
(let (?x64 (select gtFIELD__temporalCounter_i2__gtAGG____anonstruct_D_Work_4 gtINDEX1))
(let (?x59 (select gtFIELD__temporalCounter_i1__gtAGG____anonstruct_D_Work_4 gtINDEX0))
(flet ($x920 (and (iff constraint0 (= sfEvent_ bv8[32])) (iff constraint1 (not (bvult ?x59 bv4294967295[32]))) (iff constraint2 (not (bvult ?x64 bv4294967295[32]))) (iff constraint3 (bvult ?x68 bv4294967295[32])) $x553 (iff constraint5 (bvult ?x78 bv4294967295[32])) $x557 (iff constraint7 (not (bvult ?x87 bv4294967295[32]))) (iff constraint8 (not (= (zero_extend[31] ?x91) bv0[32]))) (iff constraint9 (not (= (zero_extend[29] ?x97) bv1[32]))) (iff constraint10 (not (= (zero_extend[29] ?x102) bv2[32]))) (iff constraint11 (not (= (zero_extend[29] ?x108) bv3[32]))) (iff constraint12 (= (zero_extend[29] ?x114) bv4[32])) (iff constraint13 (not $x120)) (iff constraint14 (not (= (zero_extend[31] ?x123) bv0[32]))) (iff constraint15 (= (zero_extend[30] ?x128) bv1[32])) (iff constraint16 (not $x133)) (iff constraint17 (not (= sfEvent_ bv4[32]))) (iff constraint18 (not (= sfEvent_ bv5[32]))) (iff constraint19 (not (= sfEvent_ bv3[32]))) (iff constraint20 (not (= (zero_extend[31] ?x143) bv0[32]))) (iff constraint21 (not (= (zero_extend[30] ?x148) bv1[32]))) (iff constraint22 (not (= (zero_extend[30] ?x153) bv2[32]))) (iff constraint23 (= (zero_extend[30] ?x158) bv3[32])) (iff constraint24 (not $x163)) (iff constraint25 (not (= (zero_extend[31] ?x166) bv0[32]))) (iff constraint26 (= (zero_extend[30] ?x171) bv1[32])) (iff constraint27 (not (= sfEvent_ bv0[32]))) (iff constraint28 (not (= sfEvent_ bv4[32]))) (iff constraint29 (not (= (zero_extend[31] ?x177) bv0[32]))) (iff constraint30 (= (zero_extend[30] ?x182) bv1[32])) (iff constraint31 (not (= sfEvent_ bv4[32]))) (iff constraint32 (not (= sfEvent_ bv5[32]))) (iff constraint33 (not $x187)) (iff constraint34 (not (= (zero_extend[31] ?x190) bv0[32]))) (iff constraint35 (= ?x196 bv1[32])) (iff constraint36 $x200) (iff constraint37 $x204) (iff constraint38 (= sf_previousEvent_1_ sfEvent_)) (iff constraint39 (= sfEvent__1_ bv5[32])) (iff constraint40 (not (= sfEvent__1_ bv8[32]))) (iff constraint41 (not (= (zero_extend[31] ?x212) bv0[32]))) (iff constraint42 (not (= (zero_extend[29] ?x217) bv1[32]))) (iff constraint43 (not (= (zero_extend[29] ?x222) bv2[32]))) (iff constraint44 (not (= (zero_extend[29] ?x227) bv3[32]))) (iff constraint45 (= (zero_extend[29] ?x232) bv4[32])) (iff constraint46 (not $x237)) (iff constraint47 (not (= (zero_extend[31] ?x240) bv0[32]))) (iff constraint48 (= (zero_extend[30] ?x245) bv1[32])) (iff constraint49 (not $x250)) (iff constraint50 (not (= sfEvent__1_ bv4[32]))) (iff constraint51 (= sfEvent__1_ bv5[32])) (iff constraint52 $x256) $x651 $x653 (iff constraint55 (not (= (zero_extend[31] ?x265) bv0[32]))) (iff constraint56 (not (= (zero_extend[30] ?x270) bv1[32]))) (iff constraint57 (not (= (zero_extend[30] ?x275) bv2[32]))) (iff constraint58 (= (zero_extend[30] ?x280) bv3[32])) (iff constraint59 (not $x285)) (iff constraint60 (not (= (zero_extend[31] ?x288) bv0[32]))) (iff constraint61 (= (zero_extend[30] ?x293) bv1[32])) (iff constraint62 (not (= sfEvent__1_ bv0[32]))) (iff constraint63 (not (= sfEvent__1_ bv4[32]))) (iff constraint64 (not (= (zero_extend[31] ?x299) bv0[32]))) (iff constraint65 (= (zero_extend[30] ?x304) bv1[32])) (iff constraint66 (not (= sfEvent__1_ bv4[32]))) (iff constraint67 (= sfEvent__1_ bv5[32])) (iff constraint68 $x309) $x683 $x685 (iff constraint71 (not (= (zero_extend[31] ?x317) bv0[32]))) (iff constraint72 (= ?x323 bv1[32])) (iff constraint73 (not $x327)) (iff constraint74 (not $x332)) (iff constraint75 $x336) $x697 (iff constraint77 (= ?x342 bv1[32])) $x701 (iff constraint79 (= sfEvent__2_ sf_previousEvent_1_)) (iff constraint80 (= (zero_extend[31] ?x351) bv1[32])) $x707 (iff constraint82 (= gtINDEX0 gtAGG__rtDWork)) (iff constraint83 (= gtINDEX1 gtAGG__rtDWork)) (iff constraint84 (= gtINDEX2 gtAGG__rtDWork)) (iff constraint85 (= gtINDEX3 gtAGG__rtDWork)) (iff constraint86 (= gtINDEX4 gtAGG__rtDWork)) (iff constraint87 (= gtINDEX5 gtAGG__rtDWork)) (iff constraint88 (= gtINDEX6 gtAGG__rtDWork)) (iff constraint89 (= gtINDEX7 gtAGG__rtDWork)) (iff constraint90 (= gtINDEX8 gtAGG__rtDWork)) (iff constraint91 (= gtINDEX9 gtAGG__rtDWork)) (iff constraint92 $x370) (iff constraint93 (= gtINDEX11 gtAGG__rtDWork)) (iff constraint94 $x374) (iff constraint95 (= gtINDEX13 gtAGG__rtDWork)) (iff constraint96 $x378) (iff constraint97 (= gtINDEX15 gtAGG__rtDWork)) (iff constraint98 $x382) (iff constraint99 (= gtINDEX17 gtAGG__rtDWork)) (iff constraint100 $x386) (iff constraint101 (= gtINDEX19 gtAGG__rtDWork)) (iff constraint102 (= gtINDEX20 gtAGG__rtDWork)) (iff constraint103 $x391) (iff constraint104 (= gtINDEX22 gtAGG__rtDWork)) (iff constraint105 $x395) (iff constraint106 (= gtINDEX24 gtAGG__rtDWork)) (iff constraint107 (= gtINDEX25 gtAGG__rtDWork)) (iff constraint108 $x400) (iff constraint109 (= gtINDEX27 gtAGG__rtDWork)) (iff constraint110 $x404) (iff constraint111 (= gtINDEX29 gtAGG__rtDWork)) (iff constraint112 $x408) (iff constraint113 (= gtINDEX31 gtAGG__rtDWork)) (iff constraint114 $x412) (iff constraint115 (= gtINDEX33 gtAGG__rtDWork)) (iff constraint116 (= gtINDEX34 gtAGG__rtDWork)) (iff constraint117 $x417) (iff constraint118 (= gtINDEX36 gtAGG__rtDWork)) (iff constraint119 $x421) (iff constraint120 (= gtINDEX38 gtAGG__rtDWork)) (iff constraint121 $x425) (iff constraint122 (= gtINDEX40 gtAGG__rtDWork)) (iff constraint123 $x429) (iff constraint124 (= gtINDEX42 gtAGG__rtDWork)) (iff constraint125 (= gtINDEX43 gtAGG__rtDWork)) (iff constraint126 $x434) (iff constraint127 (= gtINDEX45 gtAGG__rtDWork)) (iff constraint128 $x438) (iff constraint129 (= gtINDEX47 gtAGG__rtDWork)) (iff constraint130 (= gtINDEX48 gtAGG__rtDWork)) (iff constraint131 (= gtINDEX49 gtAGG__rtDWork)) (iff constraint132 $x444) (iff constraint133 (= gtINDEX51 gtAGG__rtDWork)) (iff constraint134 $x448) (iff constraint135 (= gtINDEX53 gtAGG__rtDWork)) (iff constraint136 $x452) (iff constraint137 (= gtINDEX55 gtAGG__rtDWork)) (iff constraint138 $x456) (iff constraint139 (= gtINDEX57 gtAGG__rtDWork)) (iff constraint140 $x460) (iff constraint141 (= gtINDEX59 gtAGG__rtDWork)) (iff constraint142 (= gtINDEX60 gtAGG__rtDWork)) (iff constraint143 $x465) (iff constraint144 (= gtINDEX62 gtAGG__rtDWork)) (iff constraint145 $x469) (iff constraint146 (= gtINDEX64 gtAGG__rtDWork)) (iff constraint147 (= gtINDEX65 gtAGG__rtDWork)) (iff constraint148 (= gtINDEX66 gtAGG__rtDWork)) (iff constraint149 $x475) (iff constraint150 (= gtINDEX68 gtAGG__rtDWork)) (iff constraint151 (= gtINDEX69 gtAGG__rtDWork)) (iff constraint152 $x480) (iff constraint153 (= gtINDEX71 gtAGG__rtDWork)) (iff constraint154 $x484) (iff constraint155 (= gtINDEX73 gtAGG__rtDWork)) (iff constraint156 $x488) (iff constraint157 (= gtINDEX75 gtAGG__rtDWork)) (iff constraint158 $x492) (iff constraint159 (= gtINDEX77 gtAGG__rtDWork)) (iff constraint160 (= gtINDEX78 gtAGG__rtDWork)) (iff constraint161 $x497) (iff constraint162 (= gtINDEX80 gtAGG__rtDWork)) (iff constraint163 $x501) (iff constraint164 (= gtINDEX82 gtAGG__rtDWork)) (iff constraint165 $x505) (iff constraint166 (= gtINDEX84 gtAGG__rtDWork)) (iff constraint167 $x509) (iff constraint168 (= gtINDEX86 gtAGG__rtDWork)) (iff constraint169 (= gtINDEX87 gtAGG__rtDWork)) (iff constraint170 $x514) (iff constraint171 (= gtINDEX89 gtAGG__rtDWork)) (iff constraint172 (= gtINDEX90 gtAGG__rtDWork)) (iff constraint173 $x519) (iff constraint174 (= gtINDEX92 gtAGG__rtDWork)) (iff constraint175 $x523) (iff constraint176 (= gtINDEX94 gtAGG__rtDWork)) (iff constraint177 (= gtINDEX95 gtAGG__rtDWork)) (iff constraint178 (= gtINDEX96 gtAGG__rtDWork)) (iff constraint179 (= gtINDEX97 gtAGG__rtDWork)) (iff constraint180 (= gtINDEX98 gtAGG__rtDWork)) (iff constraint181 $x531) (iff constraint182 (= gtINDEX100 gtAGG__rtDWork)) (iff constraint183 (= gtINDEX101 ?x534)) (iff constraint184 (= gtINDEX102 gtAGG__rtDWork)) (iff constraint185 (= gtINDEX103 ?x538)) (iff constraint186 (= gtINDEX104 gtAGG__rtDWork)) (iff constraint187 (= gtINDEX105 ?x542))))
(and $x920 $x921)))))))))))))))))))))))))))))))))))))))))))))))))))))))))))))))))))))))))))))))))))))))))))))))))))))))))))))))))))))))))
)
